language ESSENCE' 1.0
letting shiftRequirements = [[32, 1, 5, 6], [16, 1, 5, 22], [7, 1, 6, 30], [5, 1, 6, 32], [12, 2, 5, 25], [33, 2, 4, 5], [33, 2, 4, 5]]
letting numberOfWeeks = 44
letting s_min = 3
letting s_max = 4
